solution status: optimal solution found
objective value:                                514.5
x#1                                                14 	(obj:8)
x#2                                                10 	(obj:9)
x#3                                                17 	(obj:7)
x#4                                                 3 	(obj:11)
x#5                                                10 	(obj:12)
s#1                                                 4 	(obj:1.5)
s#2                                                 4 	(obj:1.5)
s#3                                                11 	(obj:1.5)
s#4                                                 4 	(obj:1.5)
s#5                                                 4 	(obj:1.5)
